# Solution for model RMP_EVSP
# Objective value = 2.1970697757110415e+12
a[0] 0
a[1] 0
a[2] 0
a[3] 0
a[4] 0
a[5] 0
a[6] 0
a[7] 0
a[8] 0
a[9] 0
a[10] 0
a[11] 0
a[12] 0
a[13] 1
a[14] 1
a[15] 0
a[16] 0
a[17] 0
a[18] 0
a[19] 1
a[20] 0
a[21] 0
a[22] 0
a[23] 1
a[24] 0
a[25] 0
a[26] 0
a[27] 0
a[28] 0
a[29] 0
a[30] 0
a[31] 0
a[32] 0
a[33] 0
a[34] 1
a[35] 0
a[36] 0
a[37] 0
a[38] 0
a[39] 0
a[40] 0
a[41] 0
a[42] 0
a[43] 1
a[44] 0
a[45] 0
a[46] 0
a[47] 0
a[48] 0
a[49] 0
a[50] 0
a[51] 0
a[52] 0
a[53] 0
a[54] 0
a[55] 0
a[56] 0
a[57] 0
a[58] 0
a[59] 0
a[60] 0
a[61] 0
a[62] 0
a[63] 0
a[64] 0
a[65] 0
a[66] 0
a[67] 0
a[68] 0
a[69] 0
a[70] 0
a[71] 0
a[72] 0
a[73] 0
a[74] 0
a[75] 0
a[76] 0
a[77] 0
a[78] 0
a[79] 0
a[80] 0
a[81] 0
a[82] 0
a[83] 0
a[84] 0
a[85] 0
a[86] 0
a[87] 0
a[88] 0
a[89] 0
a[90] 0
a[91] 0
a[92] 0
a[93] 0
a[94] 0
a[95] 0
a[96] 1
a[97] 0
a[98] 0
a[99] 1
a[100] 0
a[101] 1
a[102] 0
a[103] 1
a[104] 0
a[105] 0
a[106] 0
a[107] 0
a[108] 0
a[109] 0
a[110] 0
a[111] 0
a[112] 0
a[113] 0
a[114] 0
a[115] 0
a[116] 0
a[117] 0
a[118] 0
a[119] 0
a[120] 1
a[121] 0
a[122] 0
a[123] 0
a[124] 0
a[125] 0
a[126] 0
a[127] 0
a[128] 0
a[129] 0
a[130] 0
a[131] 0
a[132] 0
a[133] 0
a[134] 0
a[135] 0
a[136] 0
a[137] 0
a[138] 0
a[139] 0
a[140] 0
a[141] 0
a[142] 0
a[143] 0
a[144] 0
a[145] 0
a[146] 0
a[147] 0
a[148] 0
a[149] 0
a[150] 0
a[151] 0
a[152] 0
a[153] 0
a[154] 0
a[155] 1
a[156] 0
a[157] 0
a[158] 0
a[159] 0
a[160] 0
a[161] 0
a[162] 0
a[163] 0
a[164] 1
a[165] 0
a[166] 0
a[167] 0
a[168] 0
a[169] 0
a[170] 0
a[171] 0
a[172] 0
a[173] 0
a[174] 0
a[175] 0
a[176] 0
a[177] 0
a[178] 0
a[179] 0
a[180] 0
a[181] 1
a[182] 0
a[183] 0
a[184] 0
a[185] 0
a[186] 0
a[187] 1
a[188] 0
a[189] 0
a[190] 0
a[191] 0
a[192] 0
a[193] 0
a[194] 0
a[195] 0
a[196] 0
a[197] 0
a[198] 0
a[199] 0
a[200] 0
a[201] 0
a[202] 0
a[203] 0
a[204] 0
a[205] 0
a[206] 0
a[207] 0
a[208] 0
a[209] 0
a[210] 0
a[211] 0
a[212] 0
a[213] 0
a[214] 0
a[215] 0
a[216] 0
a[217] 0
a[218] 0
a[219] 0
a[220] 0
a[221] 0
a[222] 0
a[223] 0
a[224] 0
a[225] 0
a[226] 0
a[227] 0
a[228] 0
a[229] 0
a[230] 0
a[231] 0
a[232] 0
a[233] 0
a[234] 0
a[235] 0
a[236] 0
a[237] 0
a[238] 0
a[239] 0
a[240] 0
a[241] 1
a[242] 1
a[243] 1
a[244] 1
a[245] 1
a[246] 1
a[247] 1
a[248] 1
a[249] 1
a[250] 1
a[251] 1
a[252] 1
a[253] 1
a[254] 1
a[255] 1
a[256] 1
a[257] 1
a[258] 1
a[259] 1
a[260] 1
a[261] 1
a[262] 1
a[263] 0
a[264] 1
a[265] 1
a[266] 0
a[267] 0
a[268] 1
a[269] 1
a[270] 1
a[271] 1
a[272] 1
a[273] 0
a[274] 1
a[275] 2.3088582333492864e-06
a[276] 1
a[277] 1
a[278] 1
a[279] 1
a[280] 1
a[281] 1
a[282] 1
a[283] 1
a[284] 1
a[285] 1
a[286] 1
a[287] 1
a[288] 1
a[289] 1
a[290] 1
a[291] 1
a[292] 1
a[293] 1
a[294] 1
a[295] 1
a[296] 0
a[297] 1
a[298] 1
a[299] 1
a[300] 1
a[301] 1
a[302] 1
a[303] 1
a[304] 1
a[305] 1
a[306] 1
a[307] 1
a[308] 1
a[309] 1
a[310] 1
a[311] 1
a[312] 1
a[313] 1
a[314] 0
a[315] 1
a[316] 2.5171538106397662e-07
a[317] 1
a[318] 1
a[319] 1
a[320] 1
a[321] 7.6559972736215348e-07
a[322] 1
a[323] 1
a[324] 1
a[325] 1
a[326] 1
a[327] 1
a[328] 1
a[329] 1
a[330] 1
a[331] 1
a[332] 1
a[333] 1
a[334] 1
a[335] 1
a[336] 1
a[337] 1
a[338] 1
a[339] 1
a[340] 1
a[341] 1
a[342] 1
a[343] 1
a[344] 1
a[345] 1
a[346] 1
a[347] 1
a[348] 1
a[349] 1
a[350] 1
a[351] 1
a[352] 1
a[353] 1
a[354] 1
a[355] 1
a[356] 1
a[357] 1
a[358] 1
a[359] 1
a[360] 1
a[361] 1
a[362] 1
a[363] 1
a[364] 1
a[365] 1
a[366] 1
a[367] 1
a[368] 1
a[369] 1
a[370] 1
a[371] 1
a[372] 1
a[373] 1
a[374] 1
a[375] 1
a[376] 1
a[377] 1
a[378] 1
a[379] 1
a[380] 1
a[381] 1
a[382] 1
a[383] 1
a[384] 1
a[385] 1
a[386] 1
a[387] 1
a[388] 1
a[389] 1
a[390] 1
a[391] 1
a[392] 1
a[393] 1
a[394] 1
a[395] 1
a[396] 1
a[397] 1
a[398] 1
a[399] 1
a[400] 1
a[401] 1
a[402] 1
a[403] 1
a[404] 1
a[405] 1
a[406] 1
a[407] 1
a[408] 1
a[409] 1
a[410] 1
a[411] 1
a[412] 1
a[413] 1
a[414] 1
a[415] 1
a[416] 1
a[417] 1
a[418] 1
a[419] 1
a[420] 1
a[421] 0
a[422] 1
a[423] 1
a[424] 1
a[425] 1
a[426] 1
a[427] 1
a[428] 1
a[429] 1
a[430] 1
a[431] 1
a[432] 1
a[433] 1
a[434] 1
a[435] 1
a[436] 1
a[437] 1
a[438] 1
a[439] 1
a[440] 1
a[441] 1
a[442] 1
a[443] 1
a[444] 1
a[445] 1
a[446] 1
a[447] 1
a[448] 1
a[449] 1
a[450] 1
a[451] 1
a[452] 1
a[453] 1
a[454] 1
a[455] 1
a[456] 1
a[457] 1
a[458] 1
a[459] 1
a[460] 1
a[461] 1
a[462] 1
a[463] 1
a[464] 1
a[465] 1
a[466] 1
a[467] 1
a[468] 1
a[469] 1
a[470] 1
a[471] 1
a[472] 1
a[473] 1
a[474] 1
a[475] 1
a[476] 1
a[477] 1
a[478] 1
a[479] 1
a[480] 1
a[481] 1
a[482] 1
a[483] 1
a[484] 1
a[485] 1
a[486] 1
a[487] 1
a[488] 1
a[489] 1
a[490] 1
a[491] 1
a[492] 1
a[493] 1
a[494] 1
a[495] 1
a[496] 0
a[497] 1
a[498] 0
a[499] 1
a[500] 1
a[501] 1
a[502] 1
a[503] 0
a[504] 1
a[505] 0
a[506] 0
a[507] 0
a[508] 0
a[509] 1
a[510] 0
a[511] 0
a[512] 0
a[513] 1
a[514] 1
a[515] 1
a[516] 1
a[517] 1
a[518] 1
a[519] 1
a[520] 1
a[521] 1
a[522] 1
a[523] 1
a[524] 1
a[525] 1
a[526] 1
a[527] 1
a[528] 1
a[529] 1
a[530] 1
a[531] 1
a[532] 1
a[533] 1
a[534] 1
a[535] 1
a[536] 1
a[537] 1
a[538] 1
a[539] 1
a[540] 1
a[541] 1
a[542] 1
a[543] 1
a[544] 1
a[545] 1
a[546] 1
a[547] 1
a[548] 1
a[549] 1
a[550] 1
a[551] 2.0517153767858671e-06
a[552] 1
a[553] 1
a[554] 1
a[555] 1
a[556] 1
a[557] 1
a[558] 1
a[559] 1
a[560] 1
a[561] 1
a[562] 1
a[563] 1
a[564] 1
a[565] 1
a[566] 1
a[567] 1
a[568] 1
a[569] 1
a[570] 1
a[571] 1
a[572] 1
a[573] 1
a[574] 1
a[575] 1
a[576] 1
a[577] 1
a[578] 1
a[579] 1
a[580] 1
a[581] 1
a[582] 1
a[583] 0
a[584] 1
a[585] 1
a[586] 1
a[587] 3.8028680934568626e-07
a[588] 1
a[589] 1
a[590] 1
a[591] 1
a[592] 1
a[593] 1
a[594] 1
a[595] 1
a[596] 1
a[597] 1
a[598] 1
a[599] 1
a[600] 1
a[601] 1
a[602] 1
a[603] 1
a[604] 1
a[605] 1
a[606] 1
a[607] 1
a[608] 1
a[609] 1
a[610] 1
a[611] 1
a[612] 1
a[613] 1
a[614] 1
a[615] 1
a[616] 1
a[617] 1
a[618] 1
a[619] 1
a[620] 1
a[621] 1
a[622] 1
a[623] 1
a[624] 1
a[625] 1
a[626] 1
a[627] 1
a[628] 1
a[629] 1
a[630] 1
a[631] 1
a[632] 1
a[633] 1
a[634] 1
a[635] 1
a[636] 1
a[637] 1
a[638] 1
a[639] 1
a[640] 1
a[641] 0
a[642] 1
a[643] 1
a[644] 1
a[645] 1
a[646] 1
a[647] 1
a[648] 1
a[649] 1
a[650] 1
a[651] 1
a[652] 1
a[653] 1
a[654] 1
a[655] 1
a[656] 1
a[657] 1
a[658] 1
a[659] 1
a[660] 1
a[661] 1
a[662] 1
a[663] 1
a[664] 1
a[665] 1
a[666] 1
a[667] 1
a[668] 1
a[669] 1
a[670] 1
a[671] 1
a[672] 1
a[673] 1
a[674] 1
a[675] 1
a[676] 1
a[677] 1
a[678] 1
a[679] 1
a[680] 1
a[681] 1
a[682] 1
a[683] 1
a[684] 1
a[685] 1
a[686] 1
a[687] 1
a[688] 1
a[689] 1
a[690] 1
a[691] 1
a[692] 1
a[693] 1
a[694] 1
a[695] 1
a[696] 1
a[697] 1
a[698] 1
a[699] 1
a[700] 1
a[701] 1
a[702] 1
a[703] 1
a[704] 1
a[705] 1
a[706] 1
a[707] 1
a[708] 1
a[709] 1
a[710] 1
a[711] 1
a[712] 1
a[713] 1
a[714] 1
a[715] 1
a[716] 1
a[717] 1
a[718] 1
a[719] 0
a[720] 1
a[721] 1
a[722] 1
a[723] 1
a[724] 1
a[725] 1
a[726] 1
a[727] 1
a[728] 1
a[729] 1
a[730] 1
a[731] 1
a[732] 1
a[733] 1
a[734] 1
a[735] 1
a[736] 0
a[737] 1
a[738] 1
a[739] 1
a[740] 1
a[741] 1
a[742] 1
a[743] 1
a[744] 1
a[745] 1
a[746] 1
a[747] 1
a[748] 0
a[749] 1
a[750] 1
a[751] 1
a[752] 1
a[753] 1
a[754] 1
a[755] 1
a[756] 1
a[757] 1
a[758] 1
a[759] 1
a[760] 1
a[761] 1
a[762] 1
a[763] 1
a[764] 1
a[765] 1
a[766] 1
a[767] 1
a[768] 1
a[769] 1
a[770] 1
a[771] 1
a[772] 1
a[773] 1
a[774] 1
a[775] 1
a[776] 1
a[777] 1
a[778] 1
a[779] 1
a[780] 1
a[781] 1
a[782] 1
a[783] 1
a[784] 1
a[785] 1
a[786] 1
a[787] 1
a[788] 1
a[789] 1
a[790] 1
a[791] 1
a[792] 1
a[793] 1
a[794] 1
a[795] 1
a[796] 1
a[797] 1
a[798] 1
a[799] 1
a[800] 1
a[801] 1
a[802] 1
a[803] 1
a[804] 1
a[805] 1
a[806] 1
a[807] 1
a[808] 1
a[809] 1
a[810] 1
a[811] 1
a[812] 1
a[813] 1
a[814] 1
a[815] 1
a[816] 1
a[817] 1
a[818] 1
a[819] 1
a[820] 1
a[821] 1
a[822] 1
a[823] 1
a[824] 1
a[825] 1
a[826] 1
a[827] 1
a[828] 1
a[829] 1
a[830] 1
a[831] 1
a[832] 1
a[833] 1
a[834] 1
a[835] 1
a[836] 1
a[837] 1
a[838] 1
a[839] 1
a[840] 1
a[841] 1
a[842] 1
a[843] 1
a[844] 1
a[845] 1
a[846] 1
a[847] 1
a[848] 1
a[849] 1
a[850] 1
a[851] 1
a[852] 1
a[853] 1
a[854] 1
a[855] 1
a[856] 1
a[857] 1
a[858] 0
a[859] 0
a[860] 0
a[861] 1
a[862] 1
a[863] 1
a[864] 1
a[865] 1
a[866] 1
a[867] 1
a[868] 1
a[869] 1
a[870] 1
a[871] 1
a[872] 1
a[873] 1
a[874] 0
a[875] 1
a[876] 1
a[877] 3.8045712488513572e-07
a[878] 1
a[879] 1
a[880] 1
a[881] 1
a[882] 1
a[883] 1
a[884] 1
a[885] 1
a[886] 1
a[887] 1
a[888] 1
a[889] 1
a[890] 1
a[891] 1
a[892] 1
a[893] 1
a[894] 1
a[895] 1
a[896] 1
a[897] 1
a[898] 1
a[899] 1
a[900] 1
a[901] 1
a[902] 1
a[903] 1
a[904] 1
a[905] 1
a[906] 1
a[907] 1
a[908] 1
a[909] 1
a[910] 1
a[911] 1
a[912] 1
a[913] 1
a[914] 1
a[915] 1
a[916] 1
a[917] 1
a[918] 1
a[919] 1
a[920] 1
a[921] 1
a[922] 1
a[923] 0
a[924] 1
a[925] 1
a[926] 1
a[927] 1
a[928] 0
a[929] 1
a[930] 1
a[931] 1
a[932] 1
a[933] 1
a[934] 1
a[935] 1
a[936] 1
a[937] 1
a[938] 1
a[939] 1
a[940] 1
a[941] 1
a[942] 1
a[943] 1
a[944] 1
a[945] 1
a[946] 1
a[947] 1
a[948] 1
a[949] 1
a[950] 1
a[951] 1
a[952] 1
a[953] 1
a[954] 1
a[955] 1
a[956] 1
a[957] 1
a[958] 1
a[959] 1
a[960] 1
a[961] 1
a[962] 1
a[963] 1
a[964] 1
a[965] 1
a[966] 1
a[967] 1
a[968] 0
a[969] 1
a[970] 1
a[971] 1
a[972] 1
a[973] 1
a[974] 1
a[975] 0
a[976] 0
a[977] 1
a[978] 1
a[979] 1
a[980] 1
a[981] 1
a[982] 1
a[983] 1
a[984] 0
a[985] 0
a[986] 1
a[987] 0
a[988] 0
a[989] 0
a[990] 0
a[991] 0
a[992] 0
a[993] 0
a[994] 0
a[995] 0
a[996] 0
a[997] 0
a[998] 0
a[999] 0
a[1000] 0
a[1001] 0
a[1002] 0
a[1003] 0
a[1004] 0
a[1005] 0
a[1006] 0
a[1007] 0
a[1008] 0
a[1009] 0
a[1010] 0
a[1011] 0
a[1012] 0
a[1013] 0
a[1014] 1
a[1015] 0
a[1016] 0
a[1017] 0
a[1018] 0
a[1019] 0
a[1020] 0
a[1021] 0
a[1022] 0
a[1023] 0
a[1024] 0
a[1025] 0
a[1026] 0
a[1027] 0
a[1028] 0
a[1029] 0
a[1030] 0
a[1031] 0
a[1032] 0
a[1033] 0
a[1034] 0
a[1035] 0
a[1036] 0
a[1037] 0
a[1038] 0
a[1039] 0
a[1040] 0
a[1041] 0
a[1042] 0
a[1043] 0
a[1044] 0
a[1045] 0
a[1046] 0
a[1047] 0
a[1048] 0
a[1049] 0
a[1050] 0
a[1051] 0
a[1052] 0
a[1053] 0
a[1054] 0
a[1055] 0
a[1056] 0
a[1057] 0
a[1058] 0
a[1059] 0
a[1060] 0
a[1061] 0
a[1062] 0
a[1063] 0
a[1064] 0
a[1065] 0
a[1066] 0
a[1067] 0
a[1068] 0
a[1069] 0
a[1070] 0
a[1071] 0
a[1072] 0
a[1073] 0
a[1074] 0
a[1075] 0
a[1076] 1
a[1077] 0
a[1078] 0
a[1079] 0
a[1080] 0
a[1081] 0
a[1082] 1
a[1083] 0
a[1084] 0
a[1085] 0
a[1086] 0
a[1087] 0
a[1088] 0
a[1089] 0
a[1090] 0
a[1091] 9.9999948696161856e-01
a[1092] 0
a[1093] 0
a[1094] 0
a[1095] 0
a[1096] 0
a[1097] 0
a[1098] 0
a[1099] 0
a[1100] 0
a[1101] 0
a[1102] 0
a[1103] 0
a[1104] 0
a[1105] 0
a[1106] 0
a[1107] 0
a[1108] 0
a[1109] 0
a[1110] 0
a[1111] 0
a[1112] 0
a[1113] 0
a[1114] 0
a[1115] 0
a[1116] 0
a[1117] 0
a[1118] 0
a[1119] 0
a[1120] 0
a[1121] 0
a[1122] 0
a[1123] 0
a[1124] 0
a[1125] 0
a[1126] 0
a[1127] 0
a[1128] 0
a[1129] 0
a[1130] 0
a[1131] 0
a[1132] 0
a[1133] 0
a[1134] 0
a[1135] 0
a[1136] 0
a[1137] 0
a[1138] 0
a[1139] 0
a[1140] 0
a[1141] 0
a[1142] 0
a[1143] 0
a[1144] 0
a[1145] 0
a[1146] 9.9999974410447512e-01
a[1147] 0
a[1148] 0
a[1149] 1
a[1150] 0
a[1151] 0
a[1152] 0
a[1153] 0
a[1154] 0
a[1155] 0
a[1156] 0
a[1157] 0
a[1158] 0
a[1159] 0
a[1160] 1
a[1161] 0
a[1162] 0
a[1163] 0
a[1164] 0
a[1165] 0
a[1166] 0
a[1167] 0
a[1168] 0
a[1169] 0
a[1170] 0
a[1171] 0
a[1172] 0
a[1173] 1
a[1174] 0
a[1175] 0
a[1176] 0
a[1177] 0
a[1178] 0
a[1179] 0
a[1180] 0
a[1181] 0
a[1182] 0
a[1183] 0
a[1184] 0
a[1185] 0
a[1186] 0
a[1187] 0
a[1188] 0
a[1189] 0
a[1190] 0
a[1191] 0
a[1192] 1
a[1193] 0
a[1194] 0
a[1195] 0
a[1196] 0
a[1197] 0
a[1198] 0
a[1199] 0
a[1200] 0
a[1201] 0
a[1202] 0
a[1203] 0
a[1204] 0
a[1205] 0
a[1206] 0
a[1207] 0
a[1208] 0
a[1209] 0
a[1210] 9.9999974410447512e-01
a[1211] 0
a[1212] 0
a[1213] 0
a[1214] 0
a[1215] 0
a[1216] 0
a[1217] 1
a[1218] 0
a[1219] 0
a[1220] 0
a[1221] 0
a[1222] 1
a[1223] 0
a[1224] 0
a[1225] 0
a[1226] 0
a[1227] 0
a[1228] 0
a[1229] 0
a[1230] 0
a[1231] 0
a[1232] 0
a[1233] 0
a[1234] 0
a[1235] 0
a[1236] 0
a[1237] 0
a[1238] 0
a[1239] 0
a[1240] 0
a[1241] 0
a[1242] 0
a[1243] 0
a[1244] 0
a[1245] 0
a[1246] 0
a[1247] 0
a[1248] 0
a[1249] 0
a[1250] 0
a[1251] 0
a[1252] 0
a[1253] 0
a[1254] 0
a[1255] 0
a[1256] 0
a[1257] 0
a[1258] 0
a[1259] 0
a[1260] 0
a[1261] 9.9999974410447512e-01
a[1262] 0
a[1263] 0
a[1264] 0
a[1265] 0
a[1266] 0
a[1267] 0
a[1268] 1
a[1269] 0
a[1270] 0
a[1271] 0
a[1272] 0
a[1273] 0
a[1274] 0
a[1275] 0
a[1276] 0
a[1277] 0
a[1278] 0
a[1279] 0
a[1280] 0
a[1281] 0
a[1282] 0
a[1283] 0
a[1284] 0
a[1285] 0
a[1286] 0
a[1287] 0
a[1288] 0
a[1289] 0
a[1290] 0
a[1291] 0
a[1292] 0
a[1293] 0
a[1294] 1
a[1295] 0
a[1296] 0
a[1297] 0
a[1298] 0
a[1299] 0
a[1300] 0
a[1301] 0
a[1302] 0
a[1303] 0
a[1304] 0
a[1305] 0
a[1306] 0
a[1307] 0
a[1308] 0
a[1309] 9.9999935839019016e-01
a[1310] 0
a[1311] 0
a[1312] 0
a[1313] 0
a[1314] 0
a[1315] 1
a[1316] 0
a[1317] 0
a[1318] 0
a[1319] 0
a[1320] 0
a[1321] 0
a[1322] 0
a[1323] 0
a[1324] 1
a[1325] 0
a[1326] 0
a[1327] 0
a[1328] 0
a[1329] 0
a[1330] 0
a[1331] 0
a[1332] 0
a[1333] 0
a[1334] 0
a[1335] 0
a[1336] 0
a[1337] 0
a[1338] 0
a[1339] 9.9999897267590554e-01
a[1340] 0
a[1341] 0
a[1342] 0
a[1343] 0
a[1344] 0
a[1345] 1.02703515524166e-06
a[1346] 0
a[1347] 0
a[1348] 1
a[1349] 0
a[1350] 0
a[1351] 0
a[1352] 0
a[1353] 0
a[1354] 0
a[1355] 0
a[1356] 1
a[1357] 0
a[1358] 0
a[1359] 0
a[1360] 0
a[1361] 0
a[1362] 0
a[1363] 0
a[1364] 0
a[1365] 0
a[1366] 0
a[1367] 9.9999987267590340e-01
a[1368] 0
a[1369] 0
a[1370] 0
a[1371] 0
a[1372] 0
a[1373] 0
a[1374] 0
a[1375] 0
a[1376] 0
a[1377] 1
a[1378] 0
a[1379] 0
a[1380] 0
a[1381] 0
a[1382] 0
a[1383] 0
a[1384] 0
a[1385] 0
a[1386] 0
a[1387] 0
a[1388] 0
a[1389] 0
a[1390] 0
a[1391] 0
a[1392] 0
a[1393] 0
a[1394] 0
a[1395] 0
a[1396] 0
a[1397] 0
a[1398] 0
a[1399] 0
a[1400] 9.9999794410447929e-01
a[1401] 0
a[1402] 0
a[1403] 0
a[1404] 0
a[1405] 0
a[1406] 0
a[1407] 2.5514285654490379e-07
a[1408] 0
a[1409] 0
a[1410] 0
a[1411] 0
a[1412] 0
a[1413] 0
a[1414] 0
a[1415] 0
a[1416] 1
a[1417] 0
a[1418] 0
a[1419] 0
a[1420] 0
a[1421] 0
a[1422] 0
a[1423] 0
a[1424] 0
a[1425] 0
a[1426] 0
a[1427] 0
a[1428] 0
a[1429] 0
a[1430] 0
a[1431] 1
a[1432] 0
a[1433] 0
a[1434] 0
a[1435] 0
a[1436] 0
a[1437] 0
a[1438] 0
a[1439] 0
a[1440] 0
a[1441] 0
a[1442] 0
a[1443] 0
a[1444] 0
a[1445] 0
a[1446] 0
a[1447] 0
a[1448] 0
a[1449] 0
a[1450] 0
a[1451] 0
a[1452] 0
a[1453] 0
a[1454] 0
a[1455] 0
a[1456] 0
a[1457] 1
a[1458] 0
a[1459] 0
a[1460] 0
a[1461] 0
a[1462] 0
a[1463] 0
a[1464] 0
a[1465] 1
a[1466] 0
a[1467] 0
a[1468] 0
a[1469] 0
a[1470] 0
a[1471] 1
a[1472] 0
a[1473] 0
a[1474] 0
a[1475] 0
a[1476] 0
a[1477] 0
a[1478] 0
a[1479] 9.9999922981876210e-01
a[1480] 0
a[1481] 0
a[1482] 0
a[1483] 0
a[1484] 0
a[1485] 0
a[1486] 0
a[1487] 0
a[1488] 0
a[1489] 0
a[1490] 0
a[1491] 0
a[1492] 0
a[1493] 0
a[1494] 0
a[1495] 0
a[1496] 0
a[1497] 0
a[1498] 0
a[1499] 1
a[1500] 0
a[1501] 0
a[1502] 0
a[1503] 0
a[1504] 0
a[1505] 0
a[1506] 1
a[1507] 0
a[1508] 0
a[1509] 0
a[1510] 0
a[1511] 0
a[1512] 0
a[1513] 0
a[1514] 0
a[1515] 0
a[1516] 0
a[1517] 0
a[1518] 0
a[1519] 0
a[1520] 0
a[1521] 2.0571428523963320e-06
a[1522] 9.9999768696162272e-01
a[1523] 0
a[1524] 0
a[1525] 0
a[1526] 0
a[1527] 0
a[1528] 0
a[1529] 0
a[1530] 1
a[1531] 0
a[1532] 0
a[1533] 0
a[1534] 0
a[1535] 0
a[1536] 0
a[1537] 0
a[1538] 0
a[1539] 0
a[1540] 0
a[1541] 0
a[1542] 0
a[1543] 9.9999922981876210e-01
a[1544] 0
a[1545] 0
a[1546] 0
a[1547] 0
a[1548] 0
a[1549] 0
a[1550] 0
a[1551] 1
a[1552] 0
a[1553] 0
a[1554] 0
a[1555] 0
a[1556] 0
a[1557] 0
a[1558] 0
a[1559] 0
a[1560] 0
a[1561] 0
a[1562] 0
a[1563] 0
a[1564] 0
a[1565] 0
a[1566] 0
a[1567] 0
a[1568] 0
a[1569] 0
a[1570] 0
a[1571] 0
a[1572] 0
a[1573] 0
a[1574] 0
a[1575] 0
a[1576] 0
a[1577] 0
a[1578] 0
a[1579] 0
a[1580] 0
a[1581] 0
a[1582] 0
a[1583] 0
a[1584] 0
a[1585] 0
a[1586] 0
a[1587] 0
a[1588] 0
a[1589] 0
a[1590] 0
a[1591] 0
a[1592] 0
a[1593] 0
a[1594] 0
a[1595] 0
a[1596] 0
a[1597] 0
a[1598] 0
a[1599] 0
a[1600] 0
a[1601] 0
a[1602] 0
a[1603] 0
a[1604] 0
a[1605] 0
a[1606] 0
a[1607] 0
a[1608] 0
a[1609] 0
a[1610] 0
a[1611] 0
a[1612] 0
a[1613] 0
a[1614] 0
a[1615] 0
a[1616] 0
a[1617] 9.9999974410447512e-01
a[1618] 0
a[1619] 0
a[1620] 0
a[1621] 0
a[1622] 0
a[1623] 0
a[1624] 0
a[1625] 0
a[1626] 0
a[1627] 0
a[1628] 0
a[1629] 0
a[1630] 0
a[1631] 0
a[1632] 0
a[1633] 0
a[1634] 0
a[1635] 0
a[1636] 0
a[1637] 0
a[1638] 0
a[1639] 0
a[1640] 5.1428571297818143e-07
a[1641] 0
a[1642] 1
a[1643] 0
a[1644] 0
a[1645] 0
a[1646] 0
a[1647] 0
a[1648] 0
a[1649] 0
a[1650] 0
a[1651] 0
a[1652] 0
a[1653] 0
a[1654] 0
a[1655] 0
a[1656] 0
a[1657] 0
a[1658] 0
a[1659] 0
a[1660] 0
a[1661] 0
a[1662] 0
a[1663] 0
a[1664] 0
a[1665] 0
a[1666] 9.9999961553304673e-01
a[1667] 0
a[1668] 0
a[1669] 0
a[1670] 0
a[1671] 9.9999961553304673e-01
a[1672] 0
a[1673] 0
a[1674] 0
a[1675] 0
a[1676] 0
a[1677] 9.9999987267590351e-01
a[1678] 0
a[1679] 0
a[1680] 0
a[1681] 0
a[1682] 0
a[1683] 0
a[1684] 0
a[1685] 0
a[1686] 0
a[1687] 0
a[1688] 0
a[1689] 0
a[1690] 0
a[1691] 0
a[1692] 1
a[1693] 0
a[1694] 0
a[1695] 0
a[1696] 0
a[1697] 0
a[1698] 0
a[1699] 0
a[1700] 0
a[1701] 0
a[1702] 0
a[1703] 0
a[1704] 0
a[1705] 0
a[1706] 0
a[1707] 0
a[1708] 0
a[1709] 0
a[1710] 0
a[1711] 0
a[1712] 0
a[1713] 0
a[1714] 0
a[1715] 0
a[1716] 0
a[1717] 0
a[1718] 0
a[1719] 0
a[1720] 0
a[1721] 0
a[1722] 0
a[1723] 0
a[1724] 0
a[1725] 0
a[1726] 0
a[1727] 0
a[1728] 0
a[1729] 0
a[1730] 0
a[1731] 7.7142856963471134e-07
a[1732] 0
a[1733] 1
a[1734] 0
a[1735] 0
a[1736] 0
a[1737] 0
a[1738] 0
a[1739] 1
a[1740] 0
a[1741] 0
a[1742] 0
a[1743] 0
a[1744] 1
a[1745] 0
a[1746] 0
a[1747] 0
a[1748] 0
a[1749] 0
a[1750] 0
a[1751] 0
a[1752] 0
a[1753] 0
a[1754] 0
a[1755] 0
a[1756] 1
a[1757] 0
a[1758] 0
a[1759] 0
a[1760] 0
a[1761] 0
a[1762] 0
a[1763] 0
a[1764] 0
a[1765] 0
a[1766] 0
a[1767] 0
a[1768] 0
a[1769] 0
a[1770] 0
a[1771] 0
a[1772] 0
a[1773] 0
a[1774] 0
a[1775] 0
a[1776] 0
a[1777] 0
a[1778] 0
a[1779] 0
a[1780] 0
a[1781] 0
a[1782] 0
a[1783] 0
a[1784] 0
a[1785] 0
a[1786] 0
a[1787] 0
a[1788] 0
a[1789] 0
a[1790] 0
a[1791] 0
a[1792] 0
a[1793] 0
a[1794] 0
a[1795] 0
a[1796] 0
a[1797] 0
a[1798] 0
a[1799] 0
a[1800] 0
a[1801] 0
a[1802] 0
a[1803] 0
a[1804] 0
a[1805] 0
a[1806] 0.999999744104475
a[1807] 0
a[1808] 0
a[1809] 0
a[1810] 0
a[1811] 0
a[1812] 0
a[1813] 0
a[1814] 0
a[1815] 0
a[1816] 0
a[1817] 1
a[1818] 0
a[1819] 0
a[1820] 0
a[1821] 0
a[1822] 0
a[1823] 0
a[1824] 0
a[1825] 0
a[1826] 0
a[1827] 0
a[1828] 0
a[1829] 0
a[1830] 0
a[1831] 0
a[1832] 0
a[1833] 0
a[1834] 0
a[1835] 9.9999974410447512e-01
a[1836] 0
a[1837] 0
a[1838] 0
a[1839] 0
a[1840] 0
a[1841] 0
a[1842] 0
a[1843] 0
a[1844] 0
a[1845] 0
a[1846] 0
a[1847] 0
a[1848] 0
a[1849] 0
a[1850] 0
a[1851] 0
a[1852] 0
a[1853] 0
a[1854] 0
a[1855] 0
a[1856] 0
a[1857] 0
a[1858] 9.9999974410447512e-01
a[1859] 0
a[1860] 0
a[1861] 0
a[1862] 0
a[1863] 0
a[1864] 0
a[1865] 0
a[1866] 0
a[1867] 0
a[1868] 0
a[1869] 0
a[1870] 0
a[1871] 0
a[1872] 0
a[1873] 0
a[1874] 0
a[1875] 0
a[1876] 0
a[1877] 9.9999987267590351e-01
a[1878] 0
a[1879] 0
a[1880] 0
a[1881] 0
a[1882] 0
a[1883] 0
a[1884] 0
a[1885] 0
a[1886] 0
a[1887] 0
a[1888] 0
a[1889] 0
a[1890] 0
a[1891] 0
a[1892] 0
a[1893] 0
a[1894] 0
a[1895] 9.9999987267590351e-01
a[1896] 0
a[1897] 0
a[1898] 0
a[1899] 0
a[1900] 0
a[1901] 0
a[1902] 0
a[1903] 0
a[1904] 0
a[1905] 0
a[1906] 0
a[1907] 0
a[1908] 1
a[1909] 0
a[1910] 0
a[1911] 0
a[1912] 0
a[1913] 0
a[1914] 0
a[1915] 0
a[1916] 0
a[1917] 0
a[1918] 0
a[1919] 0
a[1920] 0
a[1921] 0
a[1922] 9.9999974410447512e-01
a[1923] 0
a[1924] 0
a[1925] 0
a[1926] 0
a[1927] 0
a[1928] 0
a[1929] 0
a[1930] 9.9999922981876210e-01
a[1931] 0
a[1932] 0
a[1933] 0
a[1934] 0
a[1935] 0
a[1936] 0
a[1937] 0
a[1938] 0
a[1939] 0
a[1940] 0
a[1941] 1
a[1942] 0
a[1943] 0
a[1944] 0
a[1945] 0
a[1946] 0
a[1947] 0
a[1948] 0
a[1949] 0
a[1950] 0
a[1951] 0
a[1952] 0
a[1953] 0
a[1954] 0
a[1955] 0
a[1956] 0
a[1957] 0
a[1958] 0
a[1959] 0
a[1960] 0
a[1961] 0
a[1962] 0
a[1963] 0
a[1964] 0
a[1965] 0
a[1966] 0
a[1967] 0
a[1968] 0
a[1969] 0
a[1970] 0
a[1971] 0
a[1972] 0
a[1973] 0
a[1974] 0
a[1975] 1
a[1976] 0
a[1977] 0
a[1978] 0
a[1979] 0
a[1980] 0
a[1981] 0
a[1982] 0
a[1983] 0
a[1984] 0
a[1985] 0
a[1986] 0
a[1987] 0
a[1988] 0
a[1989] 9.9999974410447512e-01
a[1990] 0
a[1991] 0
a[1992] 0
a[1993] 0
a[1994] 0
a[1995] 0
a[1996] 0
a[1997] 0
a[1998] 0
a[1999] 0
a[2000] 0
a[2001] 0
